96 22 47 45 36 42 17 26 69 2 64 14 76 51 71 25 9 4 84 88 21 77 39 40 72 29 19 43 87 83 13 28 91 80 52 49 46 0 48 99 20 3 16 60 33 78 8 89 68 10 15 82 94 23 95 35 44 92 5 70 50 24 57 38 11 61 62 32 66 74 55 6 79 18 1 97 86 85 56 34 31 58 30 65 75 41 53 63 93 81 59 12 98 90 67 27 73 54 37 7